10J3M/DAT/10J3MUNX-10.dat
10 3
19.2029 4.3821
38.3109 6.1896
11.8419 3.4412
13.1379 3.6246
34.7202 5.8924
13.3905 3.6593
29.1661 5.4006
47.4257 6.8866
21.7151 4.6599
27.41 5.2355
49.3718