10J3M/SOL/10J3MUNX-10.sol
solution status: optimal solution found
objective value:                              71.9721
x#1#1                                               1 	(obj:0)
x#2#2                                               1 	(obj:0)
x#3#1                                               1 	(obj:0)
x#4#1                               0.413845994110096 	(obj:0)
x#4#2                               0.586154005889904 	(obj:0)
x#5#2                                0.13474216933388 	(obj:0)
x#5#3                                0.86525783066612 	(obj:0)
x#6#1                                               1 	(obj:0)
x#7#1                                               1 	(obj:0)
x#8#3                                               1 	(obj:0)
x#9#1                                               1 	(obj:0)
x#10#2                                              1 	(obj:0)
z                                             71.9721 	(obj:1)
